c nIsolatedPIs 0
c maxPI 32
p cnf 100 205
c gate 33 -9 25 0
-9 -33 0
25 -33 0
9 -25 33 0
c gate 34 -7 23 0
-7 -34 0
23 -34 0
7 -23 34 0
c gate 35 -2 18 0
-2 -35 0
18 -35 0
2 -18 35 0
c gate 36 -1 17 0
-1 -36 0
17 -36 0
1 -17 36 0
c gate 37 -35 -36 0
-35 -37 0
-36 -37 0
35 36 37 0
c gate 38 2 -18 0
2 -38 0
-18 -38 0
-2 18 38 0
c gate 39 3 -19 0
3 -39 0
-19 -39 0
-3 19 39 0
c gate 40 -38 -39 0
-38 -40 0
-39 -40 0
38 39 40 0
c gate 41 -37 40 0
-37 -41 0
40 -41 0
37 -40 41 0
c gate 42 -4 20 0
-4 -42 0
20 -42 0
4 -20 42 0
c gate 43 -3 19 0
-3 -43 0
19 -43 0
3 -19 43 0
c gate 44 -42 -43 0
-42 -44 0
-43 -44 0
42 43 44 0
c gate 45 -41 44 0
-41 -45 0
44 -45 0
41 -44 45 0
c gate 46 5 -21 0
5 -46 0
-21 -46 0
-5 21 46 0
c gate 47 4 -20 0
4 -47 0
-20 -47 0
-4 20 47 0
c gate 48 -46 -47 0
-46 -48 0
-47 -48 0
46 47 48 0
c gate 49 -45 48 0
-45 -49 0
48 -49 0
45 -48 49 0
c gate 50 -6 -22 0
-6 -50 0
-22 -50 0
6 22 50 0
c gate 51 6 22 0
6 -51 0
22 -51 0
-6 -22 51 0
c gate 52 -50 -51 0
-50 -52 0
-51 -52 0
50 51 52 0
c gate 53 -5 21 0
-5 -53 0
21 -53 0
5 -21 53 0
c gate 54 -52 -53 0
-52 -54 0
-53 -54 0
52 53 54 0
c gate 55 -49 54 0
-49 -55 0
54 -55 0
49 -54 55 0
c gate 56 -34 55 0
-34 -56 0
55 -56 0
34 -55 56 0
c gate 57 7 -23 0
7 -57 0
-23 -57 0
-7 23 57 0
c gate 58 6 -22 0
6 -58 0
-22 -58 0
-6 22 58 0
c gate 59 -34 58 0
-34 -59 0
58 -59 0
34 -58 59 0
c gate 60 -57 -59 0
-57 -60 0
-59 -60 0
57 59 60 0
c gate 61 -56 60 0
-56 -61 0
60 -61 0
56 -60 61 0
c gate 62 8 24 0
8 -62 0
24 -62 0
-8 -24 62 0
c gate 63 -8 -24 0
-8 -63 0
-24 -63 0
8 24 63 0
c gate 64 -62 -63 0
-62 -64 0
-63 -64 0
62 63 64 0
c gate 65 -61 -64 0
-61 -65 0
-64 -65 0
61 64 65 0
c gate 66 8 -24 0
8 -66 0
-24 -66 0
-8 24 66 0
c gate 67 9 25 0
9 -67 0
25 -67 0
-9 -25 67 0
c gate 68 -9 -25 0
-9 -68 0
-25 -68 0
9 25 68 0
c gate 69 -67 -68 0
-67 -69 0
-68 -69 0
67 68 69 0
c gate 70 -66 -69 0
-66 -70 0
-69 -70 0
66 69 70 0
c gate 71 -65 70 0
-65 -71 0
70 -71 0
65 -70 71 0
c gate 72 -33 -71 0
-33 -72 0
-71 -72 0
33 71 72 0
c gate 73 -10 26 0
-10 -73 0
26 -73 0
10 -26 73 0
c gate 74 72 -73 0
72 -74 0
-73 -74 0
-72 73 74 0
c gate 75 11 27 0
11 -75 0
27 -75 0
-11 -27 75 0
c gate 76 -11 -27 0
-11 -76 0
-27 -76 0
11 27 76 0
c gate 77 -75 -76 0
-75 -77 0
-76 -77 0
75 76 77 0
c gate 78 10 -26 0
10 -78 0
-26 -78 0
-10 26 78 0
c gate 79 -77 -78 0
-77 -79 0
-78 -79 0
77 78 79 0
c gate 80 -74 79 0
-74 -80 0
79 -80 0
74 -79 80 0
c gate 81 12 -28 0
12 -81 0
-28 -81 0
-12 28 81 0
c gate 82 -12 28 0
-12 -82 0
28 -82 0
12 -28 82 0
c gate 83 -81 -82 0
-81 -83 0
-82 -83 0
81 82 83 0
c gate 84 -14 -30 0
-14 -84 0
-30 -84 0
14 30 84 0
c gate 85 14 30 0
14 -85 0
30 -85 0
-14 -30 85 0
c gate 86 -84 -85 0
-84 -86 0
-85 -86 0
84 85 86 0
c gate 87 83 -86 0
83 -87 0
-86 -87 0
-83 86 87 0
c gate 88 15 -31 0
15 -88 0
-31 -88 0
-15 31 88 0
c gate 89 -15 31 0
-15 -89 0
31 -89 0
15 -31 89 0
c gate 90 -88 -89 0
-88 -90 0
-89 -90 0
88 89 90 0
c gate 91 -16 -32 0
-16 -91 0
-32 -91 0
16 32 91 0
c gate 92 16 32 0
16 -92 0
32 -92 0
-16 -32 92 0
c gate 93 -91 -92 0
-91 -93 0
-92 -93 0
91 92 93 0
c gate 94 13 -29 0
13 -94 0
-29 -94 0
-13 29 94 0
c gate 95 -13 29 0
-13 -95 0
29 -95 0
13 -29 95 0
c gate 96 -94 -95 0
-94 -96 0
-95 -96 0
94 95 96 0
c gate 97 -93 96 0
-93 -97 0
96 -97 0
93 -96 97 0
c gate 98 90 97 0
90 -98 0
97 -98 0
-90 -97 98 0
c gate 99 87 98 0
87 -99 0
98 -99 0
-87 -98 99 0
c gate 100 80 99 0
80 -100 0
99 -100 0
-80 -99 100 0
c PO
100 0
